# Solution for model r3_t9_m0_4
# Finished Task: 5 / 9
# Makespan: 449.0, Total Distance: 289.0, Total Time: 0.0159
# R O S F
0 0 3 0.0 0.0
1 1 5 0.0 0.0
2 2 7 0.0 0.0
3 0 8 310.0 339.0
4 -1 -1 -1.0 -1.0
5 1 9 327.0 358.0
6 -1 -1 -1.0 -1.0
7 2 -1 415.0 449.0
8 0 -1 384.0 415.0
9 1 -1 415.0 444.0
10 -1 -1 -1.0 -1.0
11 -1 -1 -1.0 -1.0
